p cnf 66 738
-65 -58 0
-60 -51 0
-57 -50 0
-64 -50 0
-64 -57 0
-52 -43 0
-61 -43 0
-61 -52 0
-49 -42 0
-56 -42 0
-56 -49 0
-63 -42 0
-63 -49 0
-63 -56 0
-44 -35 0
-53 -35 0
-53 -44 0
-62 -35 0
-62 -44 0
-62 -53 0
-41 -34 0
-48 -34 0
-48 -41 0
-55 -34 0
-55 -41 0
-55 -48 0
-62 -34 0
-62 -41 0
-62 -48 0
-62 -55 0
-36 -27 0
-45 -27 0
-45 -36 0
-54 -27 0
-54 -36 0
-54 -45 0
-63 -27 0
-63 -36 0
-63 -45 0
-63 -54 0
-33 -26 0
-40 -26 0
-40 -33 0
-47 -26 0
-47 -33 0
-47 -40 0
-54 -26 0
-54 -33 0
-54 -40 0
-54 -47 0
-61 -26 0
-61 -33 0
-61 -40 0
-61 -47 0
-61 -54 0
-28 -19 0
-37 -19 0
-37 -28 0
-46 -19 0
-46 -28 0
-46 -37 0
-55 -19 0
-55 -28 0
-55 -37 0
-55 -46 0
-64 -19 0
-64 -28 0
-64 -37 0
-64 -46 0
-64 -55 0
-25 -18 0
-32 -18 0
-32 -25 0
-39 -18 0
-39 -25 0
-39 -32 0
-46 -18 0
-46 -25 0
-46 -32 0
-46 -39 0
-53 -18 0
-53 -25 0
-53 -32 0
-53 -39 0
-53 -46 0
-60 -18 0
-60 -25 0
-60 -32 0
-60 -39 0
-60 -46 0
-60 -53 0
-20 -11 0
-29 -11 0
-29 -20 0
-38 -11 0
-38 -20 0
-38 -29 0
-47 -11 0
-47 -20 0
-47 -29 0
-47 -38 0
-56 -11 0
-56 -20 0
-56 -29 0
-56 -38 0
-56 -47 0
-65 -11 0
-65 -20 0
-65 -29 0
-65 -38 0
-65 -47 0
-65 -56 0
-17 -10 0
-24 -10 0
-24 -17 0
-31 -10 0
-31 -17 0
-31 -24 0
-38 -10 0
-38 -17 0
-38 -24 0
-38 -31 0
-45 -10 0
-45 -17 0
-45 -24 0
-45 -31 0
-45 -38 0
-52 -10 0
-52 -17 0
-52 -24 0
-52 -31 0
-52 -38 0
-52 -45 0
-59 -10 0
-59 -17 0
-59 -24 0
-59 -31 0
-59 -38 0
-59 -45 0
-59 -52 0
-16 -9 0
-23 -9 0
-23 -16 0
-30 -9 0
-30 -16 0
-30 -23 0
-37 -9 0
-37 -16 0
-37 -23 0
-37 -30 0
-44 -9 0
-44 -16 0
-44 -23 0
-44 -30 0
-44 -37 0
-51 -9 0
-51 -16 0
-51 -23 0
-51 -30 0
-51 -37 0
-51 -44 0
-18 -9 0
-15 -8 0
-22 -8 0
-22 -15 0
-29 -8 0
-29 -15 0
-29 -22 0
-36 -8 0
-36 -15 0
-36 -22 0
-36 -29 0
-43 -8 0
-43 -15 0
-43 -22 0
-43 -29 0
-43 -36 0
-17 -8 0
-26 -8 0
-26 -17 0
-14 -7 0
-21 -7 0
-21 -14 0
-28 -7 0
-28 -14 0
-28 -21 0
-35 -7 0
-35 -14 0
-35 -21 0
-35 -28 0
-16 -7 0
-25 -7 0
-25 -16 0
-34 -7 0
-34 -16 0
-34 -25 0
-13 -6 0
-20 -6 0
-20 -13 0
-27 -6 0
-27 -13 0
-27 -20 0
-15 -6 0
-24 -6 0
-24 -15 0
-33 -6 0
-33 -15 0
-33 -24 0
-42 -6 0
-42 -15 0
-42 -24 0
-42 -33 0
-12 -5 0
-19 -5 0
-19 -12 0
-14 -5 0
-23 -5 0
-23 -14 0
-32 -5 0
-32 -14 0
-32 -23 0
-41 -5 0
-41 -14 0
-41 -23 0
-41 -32 0
-50 -5 0
-50 -14 0
-50 -23 0
-50 -32 0
-50 -41 0
-11 -4 0
-13 -4 0
-22 -4 0
-22 -13 0
-31 -4 0
-31 -13 0
-31 -22 0
-40 -4 0
-40 -13 0
-40 -22 0
-40 -31 0
-49 -4 0
-49 -13 0
-49 -22 0
-49 -31 0
-49 -40 0
-58 -4 0
-58 -13 0
-58 -22 0
-58 -31 0
-58 -40 0
-58 -49 0
-12 -3 0
-21 -3 0
-21 -12 0
-30 -3 0
-30 -12 0
-30 -21 0
-39 -3 0
-39 -12 0
-39 -21 0
-39 -30 0
-48 -3 0
-48 -12 0
-48 -21 0
-48 -30 0
-48 -39 0
-57 -3 0
-57 -12 0
-57 -21 0
-57 -30 0
-57 -39 0
-57 -48 0
-66 -3 0
-66 -12 0
-66 -21 0
-66 -30 0
-66 -39 0
-66 -48 0
-66 -57 0
66 58 50 42 34 26 18 10 0
-18 -10 0
-26 -10 0
-26 -18 0
-34 -10 0
-34 -18 0
-34 -26 0
-42 -10 0
-42 -18 0
-42 -26 0
-42 -34 0
-50 -10 0
-50 -18 0
-50 -26 0
-50 -34 0
-50 -42 0
-58 -10 0
-58 -18 0
-58 -26 0
-58 -34 0
-58 -42 0
-58 -50 0
-66 -10 0
-66 -18 0
-66 -26 0
-66 -34 0
-66 -42 0
-66 -50 0
-66 -58 0
65 57 49 41 33 25 17 9 0
-17 -9 0
-25 -9 0
-25 -17 0
-33 -9 0
-33 -17 0
-33 -25 0
-41 -9 0
-41 -17 0
-41 -25 0
-41 -33 0
-49 -9 0
-49 -17 0
-49 -25 0
-49 -33 0
-49 -41 0
-57 -9 0
-57 -17 0
-57 -25 0
-57 -33 0
-57 -41 0
-57 -49 0
-65 -9 0
-65 -17 0
-65 -25 0
-65 -33 0
-65 -41 0
-65 -49 0
-65 -57 0
64 56 48 40 32 24 16 8 0
-16 -8 0
-24 -8 0
-24 -16 0
-32 -8 0
-32 -16 0
-32 -24 0
-40 -8 0
-40 -16 0
-40 -24 0
-40 -32 0
-48 -8 0
-48 -16 0
-48 -24 0
-48 -32 0
-48 -40 0
-56 -8 0
-56 -16 0
-56 -24 0
-56 -32 0
-56 -40 0
-56 -48 0
-64 -8 0
-64 -16 0
-64 -24 0
-64 -32 0
-64 -40 0
-64 -48 0
-64 -56 0
63 55 47 39 31 23 15 7 0
-15 -7 0
-23 -7 0
-23 -15 0
-31 -7 0
-31 -15 0
-31 -23 0
-39 -7 0
-39 -15 0
-39 -23 0
-39 -31 0
-47 -7 0
-47 -15 0
-47 -23 0
-47 -31 0
-47 -39 0
-55 -7 0
-55 -15 0
-55 -23 0
-55 -31 0
-55 -39 0
-55 -47 0
-63 -7 0
-63 -15 0
-63 -23 0
-63 -31 0
-63 -39 0
-63 -47 0
-63 -55 0
62 54 46 38 30 22 14 6 0
-14 -6 0
-22 -6 0
-22 -14 0
-30 -6 0
-30 -14 0
-30 -22 0
-38 -6 0
-38 -14 0
-38 -22 0
-38 -30 0
-46 -6 0
-46 -14 0
-46 -22 0
-46 -30 0
-46 -38 0
-54 -6 0
-54 -14 0
-54 -22 0
-54 -30 0
-54 -38 0
-54 -46 0
-62 -6 0
-62 -14 0
-62 -22 0
-62 -30 0
-62 -38 0
-62 -46 0
-62 -54 0
61 53 45 37 29 21 13 5 0
-13 -5 0
-21 -5 0
-21 -13 0
-29 -5 0
-29 -13 0
-29 -21 0
-37 -5 0
-37 -13 0
-37 -21 0
-37 -29 0
-45 -5 0
-45 -13 0
-45 -21 0
-45 -29 0
-45 -37 0
-53 -5 0
-53 -13 0
-53 -21 0
-53 -29 0
-53 -37 0
-53 -45 0
-61 -5 0
-61 -13 0
-61 -21 0
-61 -29 0
-61 -37 0
-61 -45 0
-61 -53 0
60 52 44 36 28 20 12 4 0
-12 -4 0
-20 -4 0
-20 -12 0
-28 -4 0
-28 -12 0
-28 -20 0
-36 -4 0
-36 -12 0
-36 -20 0
-36 -28 0
-44 -4 0
-44 -12 0
-44 -20 0
-44 -28 0
-44 -36 0
-52 -4 0
-52 -12 0
-52 -20 0
-52 -28 0
-52 -36 0
-52 -44 0
-60 -4 0
-60 -12 0
-60 -20 0
-60 -28 0
-60 -36 0
-60 -44 0
-60 -52 0
59 51 43 35 27 19 11 3 0
-11 -3 0
-19 -3 0
-19 -11 0
-27 -3 0
-27 -11 0
-27 -19 0
-35 -3 0
-35 -11 0
-35 -19 0
-35 -27 0
-43 -3 0
-43 -11 0
-43 -19 0
-43 -27 0
-43 -35 0
-51 -3 0
-51 -11 0
-51 -19 0
-51 -27 0
-51 -35 0
-51 -43 0
-59 -3 0
-59 -11 0
-59 -19 0
-59 -27 0
-59 -35 0
-59 -43 0
-59 -51 0
-65 -66 0
-64 -66 0
-64 -65 0
-63 -66 0
-63 -65 0
-63 -64 0
-62 -66 0
-62 -65 0
-62 -64 0
-62 -63 0
-61 -66 0
-61 -65 0
-61 -64 0
-61 -63 0
-61 -62 0
-60 -66 0
-60 -65 0
-60 -64 0
-60 -63 0
-60 -62 0
-60 -61 0
-59 -66 0
-59 -65 0
-59 -64 0
-59 -63 0
-59 -62 0
-59 -61 0
-59 -60 0
-57 -58 0
-56 -58 0
-56 -57 0
-55 -58 0
-55 -57 0
-55 -56 0
-54 -58 0
-54 -57 0
-54 -56 0
-54 -55 0
-53 -58 0
-53 -57 0
-53 -56 0
-53 -55 0
-53 -54 0
-52 -58 0
-52 -57 0
-52 -56 0
-52 -55 0
-52 -54 0
-52 -53 0
-51 -58 0
-51 -57 0
-51 -56 0
-51 -55 0
-51 -54 0
-51 -53 0
-51 -52 0
-49 -50 0
-48 -50 0
-48 -49 0
-47 -50 0
-47 -49 0
-47 -48 0
-46 -50 0
-46 -49 0
-46 -48 0
-46 -47 0
-45 -50 0
-45 -49 0
-45 -48 0
-45 -47 0
-45 -46 0
-44 -50 0
-44 -49 0
-44 -48 0
-44 -47 0
-44 -46 0
-44 -45 0
-43 -50 0
-43 -49 0
-43 -48 0
-43 -47 0
-43 -46 0
-43 -45 0
-43 -44 0
-41 -42 0
-40 -42 0
-40 -41 0
-39 -42 0
-39 -41 0
-39 -40 0
-38 -42 0
-38 -41 0
-38 -40 0
-38 -39 0
-37 -42 0
-37 -41 0
-37 -40 0
-37 -39 0
-37 -38 0
-36 -42 0
-36 -41 0
-36 -40 0
-36 -39 0
-36 -38 0
-36 -37 0
-35 -42 0
-35 -41 0
-35 -40 0
-35 -39 0
-35 -38 0
-35 -37 0
-35 -36 0
-33 -34 0
-32 -34 0
-32 -33 0
-31 -34 0
-31 -33 0
-31 -32 0
-30 -34 0
-30 -33 0
-30 -32 0
-30 -31 0
-29 -34 0
-29 -33 0
-29 -32 0
-29 -31 0
-29 -30 0
-28 -34 0
-28 -33 0
-28 -32 0
-28 -31 0
-28 -30 0
-28 -29 0
-27 -34 0
-27 -33 0
-27 -32 0
-27 -31 0
-27 -30 0
-27 -29 0
-27 -28 0
-25 -26 0
-24 -26 0
-24 -25 0
-23 -26 0
-23 -25 0
-23 -24 0
-22 -26 0
-22 -25 0
-22 -24 0
-22 -23 0
-21 -26 0
-21 -25 0
-21 -24 0
-21 -23 0
-21 -22 0
-20 -26 0
-20 -25 0
-20 -24 0
-20 -23 0
-20 -22 0
-20 -21 0
-19 -26 0
-19 -25 0
-19 -24 0
-19 -23 0
-19 -22 0
-19 -21 0
-19 -20 0
-17 -18 0
-16 -18 0
-16 -17 0
-15 -18 0
-15 -17 0
-15 -16 0
-14 -18 0
-14 -17 0
-14 -16 0
-14 -15 0
-13 -18 0
-13 -17 0
-13 -16 0
-13 -15 0
-13 -14 0
-12 -18 0
-12 -17 0
-12 -16 0
-12 -15 0
-12 -14 0
-12 -13 0
-11 -18 0
-11 -17 0
-11 -16 0
-11 -15 0
-11 -14 0
-11 -13 0
-11 -12 0
-9 -10 0
-8 -10 0
-8 -9 0
-7 -10 0
-7 -9 0
-7 -8 0
-6 -10 0
-6 -9 0
-6 -8 0
-6 -7 0
-5 -10 0
-5 -9 0
-5 -8 0
-5 -7 0
-5 -6 0
-4 -10 0
-4 -9 0
-4 -8 0
-4 -7 0
-4 -6 0
-4 -5 0
-3 -10 0
-3 -9 0
-3 -8 0
-3 -7 0
-3 -6 0
-3 -5 0
-3 -4 0
1 0
-2 0
